(set-logic QF_S)
(declare-fun var_0xINPUT_209339 () String)
(assert (and (= (len var_0xINPUT_209339) 0) (= (len var_0xINPUT_209339) 0) (not (= var_0xINPUT_209339 "Example:")) (= (len var_0xINPUT_209339) 0) (not (= var_0xINPUT_209339 "CQALcCP5TB"))))
(check-sat var_0xINPUT_209339)